5 5
5 1 1 16 5 3 4 2 12 5 2 1 8 4 3 1 4 10 3 4 5 5 10 1 17 3 5 4 4 13 1 14
7 1 2 13 4 5 17 4 16 1 18 2 18 1 3 17 3 2 7 1 19 4 16 5 4 3 3 17 2 16 1 5 5 9 1 5 17 3 3 4 4 3 2 4
7 4 1 16 4 12 5 16 3 11 3 4 9 2 7 3 6 2 1 5 2 9 3 4 15 3 13 1 5 2 1 11 3 4 1 1 7 2 3 11 5 3
6 1 4 3 5 3 10 4 17 2 20 1 16 5 6 1 2 16 1 3 10 5 5 14 2 5 3 6 1 11 4 20 5 1 20 2 3 5 18 3 18 4 2
7 5 1 12 3 11 4 20 5 17 2 9 2 3 15 2 17 3 3 6 4 11 2 3 2 1 8 3 20 1 4 10 4 2 18 3 3 4 10 5 16 3 2 15 4 18 1 18